W=8;
H=5;

MAX_TIME=40;
MAX_TRACKS=10;

TARGET=(4,8);

TRAINS=[(1,5,DOWN)];

INIT_POS=[
(1,5,STRAIGHT_TD),
(3,1,STRAIGHT_TD),
(4,7,STRAIGHT_RL),
(4,8,STRAIGHT_RL),
];
TUNNEL_PAIRS=[
  (1, 1, DOWN, 5, 4, RIGHT),
];

GATES=[
(4,7,1,false),
];
ACTIVATIONS=[
(3,1,1),
];

DSWITCHES=[];

STATIONS=[];
